32      4       
18      14      12      11      
0       0       0       0       0       1       2       
10      0       0       4       2       1       3       
2       10      7       0       0       1       4       
8       0       9       0       5       2       8       5       
1       4       0       0       3       1       6       
10      1       7       0       0       1       7       
5       0       0       1       9       1       9       
1       0       1       0       8       1       9       
9       0       0       12      6       2       15      10      
8       11      0       0       1       1       11      
4       0       9       4       0       2       25      12      
3       0       14      4       0       1       13      
3       0       0       4       10      1       14      
5       0       0       12      9       1       16      
1       0       0       9       1       1       16      
9       2       0       1       0       1       17      
3       18      14      0       0       2       23      18      
1       1       10      0       0       2       20      19      
9       18      0       0       9       1       21      
6       13      0       7       0       1       21      
9       0       5       0       1       1       22      
7       0       3       0       5       1       24      
5       0       11      0       9       1       24      
5       18      0       9       0       2       27      26      
8       3       6       0       0       2       27      26      
9       6       0       2       0       1       28      
3       0       1       6       0       1       28      
6       11      7       0       0       1       29      
4       16      0       0       5       1       30      
7       3       0       11      0       1       31      
5       0       1       4       0       1       32      
0       0       0       0       0       0       
